
Gurobi 9.1.2 (linux64) logging started Wed Apr 13 04:59:23 2022

Changed value of parameter LogFile to ls_sym_v-(3, 0).log
   Prev:   Default: 
Changed value of parameter MIPFocus to 1
   Prev: 0  Min: 0  Max: 3  Default: 0
Changed value of parameter TimeLimit to 10800.0
   Prev: inf  Min: 0.0  Max: inf  Default: inf
Warning: variable name "X[(1, 0),(3, 0)]" has a space
Warning: constraint name "flow-constr-t0-v(2, 1)" has a space
Warning: to let Gurobi read it back, use rlp format
Gurobi Optimizer version 9.1.2 build v9.1.2rc0 (linux64)
Thread count: 32 physical cores, 64 logical processors, using up to 32 threads
Optimize a model with 4823 rows, 4352 columns and 16536 nonzeros
Model fingerprint: 0x0c98f35a
Variable types: 512 continuous, 3840 integer (3840 binary)
Coefficient statistics:
  Matrix range     [1e+00, 7e+04]
  Objective range  [1e-01, 1e-01]
  Bounds range     [1e+00, 3e+04]
  RHS range        [1e+00, 7e+04]
Presolve removed 363 rows and 384 columns
Presolve time: 0.08s
Presolved: 4460 rows, 3968 columns, 22821 nonzeros
Variable types: 512 continuous, 3456 integer (3456 binary)

Root relaxation: objective 6.400000e+01, 142 iterations, 0.00 seconds

    Nodes    |    Current Node    |     Objective Bounds      |     Work
 Expl Unexpl |  Obj  Depth IntInf | Incumbent    BestBd   Gap | It/Node Time

     0     0   64.00000    0   30          -   64.00000      -     -    0s
     0     0   64.00000    0   73          -   64.00000      -     -    0s
     0     0   64.00000    0   78          -   64.00000      -     -    0s
H    0     0                    2923.7499997   64.00000  97.8%     -    0s
     0     0   64.00000    0   38 2923.75000   64.00000  97.8%     -    0s
H    0     0                    2922.8749997   64.00000  97.8%     -    0s
H    0     0                    2224.7499999   64.00000  97.1%     -    0s
H    0     0                     163.0000000   64.00000  60.7%     -    0s
     0     0   64.00000    0   38  163.00000   64.00000  60.7%     -    0s
H    0     0                     142.0625000   64.00000  54.9%     -    0s
H    0     0                     119.2500000   64.00000  46.3%     -    0s
     0     0   64.00000    0   48  119.25000   64.00000  46.3%     -    0s
H    0     0                     104.5468750   64.00000  38.8%     -    0s
     0     0   64.00000    0   48  104.54687   64.00000  38.8%     -    0s
H    0     0                     102.5000000   64.00000  37.6%     -    1s
H    0     0                     100.2968750   64.00000  36.2%     -    1s
     0     0   64.00000    0   50  100.29687   64.00000  36.2%     -    1s
     0     0   64.00000    0   44  100.29687   64.00000  36.2%     -    1s
H    0     0                      99.9375000   64.00000  36.0%     -    1s
H    0     0                      81.9750000   64.00000  21.9%     -    1s
H    0     2                      81.4500000   64.00000  21.4%     -    1s
     0     2   64.00000    0   41   81.45000   64.00000  21.4%     -    1s
H    1     4                      81.2000000   64.00000  21.2%   553    1s
H    2     4                      75.6666667   64.00000  15.4%   281    1s
H   31    64                      75.4166667   64.00000  15.1%  41.8    2s
H   32    64                      74.6666667   64.00000  14.3%  40.7    2s
H   37    64                      74.5000000   64.00000  14.1%  35.6    2s
H   41    64                      74.4791667   64.00000  14.1%  32.5    2s
H   48    64                      74.3229167   64.00000  13.9%  28.8    2s
H   95   128                      74.0104167   64.00000  13.5%  17.3    4s
H   96   128                      71.6375000   64.00000  10.7%  17.2    4s
H  100   128                      70.1250000   64.00000  8.73%  16.6    4s
H  120   128                      69.8750000   64.00000  8.41%  14.2    4s
H  127   157                      69.3750000   64.00000  7.75%  13.6    4s
H  161   189                      68.8125000   64.00000  6.99%  11.3    4s
   191   220   64.00000   10   56   68.81250   64.00000  6.99%  10.0    5s
H  197   220                      68.2916667   64.00000  6.28%   9.7    5s
H  214   220                      68.1440972   64.00000  6.08%   9.1    5s
H 1523  1463                      67.9750000   64.00000  5.85%   4.2    6s
H 1524  1463                      67.9375000   64.00000  5.80%   4.2    6s
H 1526  1463                      67.6000000   64.00000  5.33%   4.2    6s
H 1528  1463                      67.5625000   64.00000  5.27%   4.2    6s
H 1532  1463                      67.5000000   64.00000  5.19%   4.2    6s
H 1533  1463                      67.2500000   64.00000  4.83%   4.2    6s
H 1662  2253                      67.1250000   64.00000  4.66%   4.2    8s
H 1716  2253                      67.0781250   64.00000  4.59%   4.2    8s
H 1743  2253                      67.0500000   64.00000  4.55%   4.2    8s
H 2067  2253                      66.5000000   64.00000  3.76%   4.2    8s
H 2121  2253                      66.3625000   64.00000  3.56%   4.2    8s
H 2609  8208                      66.2187500   64.00000  3.35%   4.1    8s
H 3020  8208                      66.1160714   64.00000  3.20%   5.1    8s
H 3251  8208                      66.1000000   64.00000  3.18%   5.0    8s
H 3861  8208                      66.0156250   64.00000  3.05%   4.7    8s
H 4658  8155                      66.0000000   64.00000  3.03%   5.8    8s
H 4905  8155                      65.9351852   64.00000  2.93%   6.1    8s
H 5005  8155                      65.7702703   64.00000  2.69%   6.1    8s
H 8545  8136                      65.7000000   64.00000  2.59%   7.1   11s
H 8546  8120                      65.3750000   64.00000  2.10%   7.1   11s
H 8560  8120                      65.2500000   64.00000  1.92%   7.1   11s
 12029 11415   64.25000  326   42   65.25000   64.00000  1.92%   6.8   15s
 12131 11516   64.00000   21   76   65.25000   64.00000  1.92%   9.1   21s
H12146 10939                      65.1250000   64.00000  1.73%   9.1   21s
H12207 10439                      65.0000000   64.00000  1.54%   9.1   21s
 12636 10735   64.00000   30   73   65.00000   64.00000  1.54%  17.0   25s
 14017 12385   64.00000   48   49   65.00000   64.00000  1.54%  24.2   30s
H14849 11567                      64.5572493   64.00000  0.86%  27.8   30s
H14900 15881                      64.4166667   64.00000  0.65%  28.4   32s
H15012 15379                      64.3035714   64.00000  0.47%  29.2   32s
H15159 14876                      64.2500000   64.00000  0.39%  29.4   32s
H15708 14273                      64.2083333   64.00000  0.32%  31.2   32s
H19091 12746                      64.1250000   64.00000  0.19%  41.7   32s
H20131 11415                      64.1249999   64.00000  0.19%  43.2   33s
H20132  6124                      64.0000000   64.00000  0.00%  43.2   33s

Cutting planes:
  Learned: 2
  Gomory: 1
  Cover: 96
  Implied bound: 136
  Clique: 68
  MIR: 120
  StrongCG: 1
  Flow cover: 194
  GUB cover: 4
  RLT: 71
  Relax-and-lift: 296

Explored 20394 nodes (912338 simplex iterations) in 34.00 seconds
Thread count was 32 (of 64 available processors)

Solution count 10: 64 64.125 64.125 ... 65.125

Optimal solution found (tolerance 1.00e-04)
Best objective 6.400000000000e+01, best bound 6.400000000000e+01, gap 0.0000%
